p cnf 90 47
e 90 0
e 45 0
e 89 0
e 44 0
e 88 0
e 43 0
e 87 0
e 42 0
e 86 0
e 41 0
e 85 0
e 40 0
e 84 0
e 39 0
e 83 0
e 38 0
e 82 0
e 37 0
e 81 0
e 36 0
e 80 0
e 35 0
e 79 0
e 34 0
e 78 0
e 33 0
e 77 0
e 32 0
e 76 0
e 31 0
a 75 0
a 30 0
a 74 0
a 29 0
a 73 0
a 28 0
a 72 0
a 27 0
a 71 0
a 26 0
a 70 0
a 25 0
a 69 0
a 24 0
a 68 0
a 23 0
a 67 0
a 22 0
a 66 0
a 21 0
a 65 0
a 20 0
a 64 0
a 19 0
a 63 0
a 18 0
a 62 0
a 17 0
a 61 0
a 16 0
e 60 0
e 15 0
e 59 0
e 14 0
e 58 0
e 13 0
e 57 0
e 12 0
e 56 0
e 11 0
e 55 0
e 10 0
e 54 0
e 9 0
e 53 0
e 8 0
e 52 0
e 7 0
e 51 0
e 6 0
e 50 0
e 5 0
e 49 0
e 4 0
e 48 0
e 3 0
e 47 0
e 2 0
e 46 0
e 1 0
-45 0
45 89 -44 -88 -43 0
44 88 -43 -87 -42 0
43 87 -42 -86 -41 0
42 86 -41 -85 -40 0
41 85 -40 -84 -39 0
40 84 -39 -83 -38 0
39 83 -38 -82 -37 0
38 82 -37 -81 -36 0
37 81 -36 -80 -35 0
36 80 -35 -79 -34 0
35 79 -34 -78 -33 0
34 78 -33 -77 -32 0
33 77 -32 -76 -31 0
32 76 -31 -75 -30 0
31 75 -30 -74 -29 0
30 74 -29 -73 -28 0
29 73 -28 -72 -27 0
28 72 -27 -71 -26 0
27 71 -26 -70 -25 0
26 70 -25 -69 -24 0
25 69 -24 -68 -23 0
24 68 -23 -67 -22 0
23 67 -22 -66 -21 0
22 66 -21 -65 -20 0
21 65 -20 -64 -19 0
20 64 -19 -63 -18 0
19 63 -18 -62 -17 0
18 62 -17 -61 -16 0
17 61 -16 -60 -15 0
16 60 -15 -59 -14 0
15 59 -14 -58 -13 0
14 58 -13 -57 -12 0
13 57 -12 -56 -11 0
12 56 -11 -55 -10 0
11 55 -10 -54 -9 0
10 54 -9 -53 -8 0
9 53 -8 -52 -7 0
8 52 -7 -51 -6 0
7 51 -6 -50 -5 0
6 50 -5 -49 -4 0
5 49 -4 -48 -3 0
4 48 -3 -47 -2 0
3 47 -2 -46 -1 0
2 1 0
2 -1 0
-2 1 0
